Running HiGHS 1.10.0 (git hash: fd8665394e): Copyright (c) 2025 HiGHS under MIT licence terms
MIP  has 35 rows; 25 cols; 190 nonzeros; 25 integer variables (25 binary)
Coefficient ranges:
  Matrix [1e+00, 1e+00]
  Cost   [6e+00, 1e+16]
  Bound  [1e+00, 1e+00]
  RHS    [1e+00, 3e+00]
WARNING: Problem has excessively large costs: consider scaling the costs by 1e+6 or less, or setting option user_cost_scale to -20 or less
Presolving model
35 rows, 25 cols, 190 nonzeros  0s
35 rows, 25 cols, 200 nonzeros  0s
Objective function is integral with scale 2

Solving MIP model with:
   35 rows
   25 cols (25 binary, 0 integer, 0 implied int., 0 continuous)
   200 nonzeros

Src: B => Branching; C => Central rounding; F => Feasibility pump; H => Heuristic; L => Sub-MIP;
     P => Empty MIP; R => Randomized rounding; S => Solve LP; T => Evaluate node; U => Unbounded;
     z => Trivial zero; l => Trivial lower; u => Trivial upper; p => Trivial point; X => User solution

        Nodes      |    B&B Tree     |            Objective Bounds              |  Dynamic Constraints |       Work      
Src  Proc. InQueue |  Leaves   Expl. | BestBound       BestSol              Gap |   Cuts   InLp Confl. | LpIters     Time

         0       0         0   0.00%   0               inf                  inf        0      0      0         0     0.0s
 T       0       0         0   0.00%   0               48               100.00%        0      0      0        11     0.0s
         1       0         1 100.00%   48              48                 0.00%        0      0      0        11     0.0s

Solving report
  Status            Optimal
  Primal bound      48
  Dual bound        48
  Gap               0% (tolerance: 0.01%)
  P-D integral      3.00407409668e-05
  Solution status   feasible
                    48 (objective)
                    0 (bound viol.)
                    0 (int. viol.)
                    0 (row viol.)
  Timing            0.00 (total)
                    0.00 (presolve)
                    0.00 (solve)
                    0.00 (postsolve)
  Max sub-MIP depth 0
  Nodes             1
  Repair LPs        0 (0 feasible; 0 iterations)
  LP iterations     11 (total)
                    0 (strong br.)
                    0 (separation)
                    0 (heuristics)

====================================================================================================
PROBLEMFORMULERING
====================================================================================================
Minimer Z = 1.0e16x_1_1 + 16.0x_1_2 + 10.0x_1_3 + 12.0x_1_4 + 11.5x_1_5 + 12.0x_2_1 + 1.0e16x_2_2 + 10.0x_2_3 + 12.0x_2_4 + 10.5x_2_5 + 12.0x_3_1 + 10.0x_3_2 + 1.0e16x_3_3 + 8.0x_3_4 + 7.5x_3_5 + 16.0x_4_1 + 12.0x_4_2 + 10.0x_4_3 + 1.0e16x_4_4 + 8.5x_4_5 + 13.5x_5_1 + 10.5x_5_2 + 5.5x_5_3 + 9.5x_5_4 + 1.0e16x_5_5

u.b.b.:
  x_1_1 + x_1_2 + x_1_3 + x_1_4 + x_1_5 = 1.0
  x_2_1 + x_2_2 + x_2_3 + x_2_4 + x_2_5 = 1.0
  x_3_1 + x_3_2 + x_3_3 + x_3_4 + x_3_5 = 1.0
  x_4_1 + x_4_2 + x_4_3 + x_4_4 + x_4_5 = 1.0
  x_5_1 + x_5_2 + x_5_3 + x_5_4 + x_5_5 = 1.0
  x_1_1 + x_2_1 + x_3_1 + x_4_1 + x_5_1 = 1.0
  x_1_2 + x_2_2 + x_3_2 + x_4_2 + x_5_2 = 1.0
  x_1_3 + x_2_3 + x_3_3 + x_4_3 + x_5_3 = 1.0
  x_1_4 + x_2_4 + x_3_4 + x_4_4 + x_5_4 = 1.0
  x_1_5 + x_2_5 + x_3_5 + x_4_5 + x_5_5 = 1.0
  x_1_2 + x_2_1 ≤ 1.0
  x_1_3 + x_3_1 ≤ 1.0
  x_1_4 + x_4_1 ≤ 1.0
  x_1_5 + x_5_1 ≤ 1.0
  x_2_3 + x_3_2 ≤ 1.0
  x_2_4 + x_4_2 ≤ 1.0
  x_2_5 + x_5_2 ≤ 1.0
  x_3_4 + x_4_3 ≤ 1.0
  x_3_5 + x_5_3 ≤ 1.0
  x_4_5 + x_5_4 ≤ 1.0
  x_1_2 + x_1_3 + x_2_1 + x_2_3 + x_3_1 + x_3_2 ≤ 2.0
  x_1_2 + x_1_4 + x_2_1 + x_2_4 + x_4_1 + x_4_2 ≤ 2.0
  x_1_2 + x_1_5 + x_2_1 + x_2_5 + x_5_1 + x_5_2 ≤ 2.0
  x_1_3 + x_1_4 + x_3_1 + x_3_4 + x_4_1 + x_4_3 ≤ 2.0
  x_1_3 + x_1_5 + x_3_1 + x_3_5 + x_5_1 + x_5_3 ≤ 2.0
  x_1_4 + x_1_5 + x_4_1 + x_4_5 + x_5_1 + x_5_4 ≤ 2.0
  x_2_3 + x_2_4 + x_3_2 + x_3_4 + x_4_2 + x_4_3 ≤ 2.0
  x_2_3 + x_2_5 + x_3_2 + x_3_5 + x_5_2 + x_5_3 ≤ 2.0
  x_2_4 + x_2_5 + x_4_2 + x_4_5 + x_5_2 + x_5_4 ≤ 2.0
  x_3_4 + x_3_5 + x_4_3 + x_4_5 + x_5_3 + x_5_4 ≤ 2.0
  x_1_2 + x_1_3 + x_1_4 + x_2_1 + x_2_3 + x_2_4 + x_3_1 + x_3_2 + x_3_4 + x_4_1 + x_4_2 + x_4_3 ≤ 3.0
  x_1_2 + x_1_3 + x_1_5 + x_2_1 + x_2_3 + x_2_5 + x_3_1 + x_3_2 + x_3_5 + x_5_1 + x_5_2 + x_5_3 ≤ 3.0
  x_1_2 + x_1_4 + x_1_5 + x_2_1 + x_2_4 + x_2_5 + x_4_1 + x_4_2 + x_4_5 + x_5_1 + x_5_2 + x_5_4 ≤ 3.0
  x_1_3 + x_1_4 + x_1_5 + x_3_1 + x_3_4 + x_3_5 + x_4_1 + x_4_3 + x_4_5 + x_5_1 + x_5_3 + x_5_4 ≤ 3.0
  x_2_3 + x_2_4 + x_2_5 + x_3_2 + x_3_4 + x_3_5 + x_4_2 + x_4_3 + x_4_5 + x_5_2 + x_5_3 + x_5_4 ≤ 3.0

Samt:
  x_1_1 ∈ {0,1}, x_1_2 ∈ {0,1}, x_1_3 ∈ {0,1}, x_1_4 ∈ {0,1}, x_1_5 ∈ {0,1}, x_2_1 ∈ {0,1}, x_2_2 ∈ {0,1}, x_2_3 ∈ {0,1}, x_2_4 ∈ {0,1}, x_2_5 ∈ {0,1}, x_3_1 ∈ {0,1}, x_3_2 ∈ {0,1}, x_3_3 ∈ {0,1}, x_3_4 ∈ {0,1}, x_3_5 ∈ {0,1}, x_4_1 ∈ {0,1}, x_4_2 ∈ {0,1}, x_4_3 ∈ {0,1}, x_4_4 ∈ {0,1}, x_4_5 ∈ {0,1}, x_5_1 ∈ {0,1}, x_5_2 ∈ {0,1}, x_5_3 ∈ {0,1}, x_5_4 ∈ {0,1}, x_5_5 ∈ {0,1}
====================================================================================================

Output i MIP format begynder nu


OPTIMAL - Optimal løsning fundet
----------------------------------------------------------------------------------------------------
Værdi af objektivfunktionen:
 -> 48.00


Variabelnavn                   |Variabeltype                   |Værdi                         
-------------------------------------------------------------------------------------
x_1_1                          |Binary                         |0.00                          
x_1_2                          |Binary                         |0.00                          
x_1_3                          |Binary                         |-0.00                         
x_1_4                          |Binary                         |1.00                          
x_1_5                          |Binary                         |0.00                          
x_2_1                          |Binary                         |1.00                          
x_2_2                          |Binary                         |0.00                          
x_2_3                          |Binary                         |0.00                          
x_2_4                          |Binary                         |0.00                          
x_2_5                          |Binary                         |-0.00                         
x_3_1                          |Binary                         |0.00                          
x_3_2                          |Binary                         |1.00                          
x_3_3                          |Binary                         |0.00                          
x_3_4                          |Binary                         |-0.00                         
x_3_5                          |Binary                         |0.00                          
x_4_1                          |Binary                         |0.00                          
x_4_2                          |Binary                         |-0.00                         
x_4_3                          |Binary                         |0.00                          
x_4_4                          |Binary                         |0.00                          
x_4_5                          |Binary                         |1.00                          
x_5_1                          |Binary                         |0.00                          
x_5_2                          |Binary                         |0.00                          
x_5_3                          |Binary                         |1.00                          
x_5_4                          |Binary                         |0.00                          
x_5_5                          |Binary                         |0.00                          


Slack: 

Begrænsningnavn |LHS             |RHS             |Slack           |Bindende status
-------------------------------------------------------------------------------
Outgoing_ca     |1.00            |1.00            |0.00            |Bindende       
Outgoing_wh     |1.00            |1.00            |0.00            |Bindende       
Outgoing_ta     |1.00            |1.00            |0.00            |Bindende       
Outgoing_kr     |1.00            |1.00            |0.00            |Bindende       
Outgoing_cr     |1.00            |1.00            |0.00            |Bindende       
Incoming_ca     |1.00            |1.00            |0.00            |Bindende       
Incoming_wh     |1.00            |1.00            |0.00            |Bindende       
Incoming_ta     |1.00            |1.00            |0.00            |Bindende       
Incoming_kr     |1.00            |1.00            |0.00            |Bindende       
Incoming_cr     |1.00            |1.00            |0.00            |Bindende       
Subtour_1       |1.00            |1.00            |0.00            |Bindende       
Subtour_2       |0.00            |1.00            |1.00            |Ikke-bindende  
Subtour_3       |1.00            |1.00            |0.00            |Bindende       
Subtour_4       |0.00            |1.00            |1.00            |Ikke-bindende  
Subtour_5       |1.00            |1.00            |0.00            |Bindende       
Subtour_6       |0.00            |1.00            |1.00            |Ikke-bindende  
Subtour_7       |0.00            |1.00            |1.00            |Ikke-bindende  
Subtour_8       |0.00            |1.00            |1.00            |Ikke-bindende  
Subtour_9       |1.00            |1.00            |0.00            |Bindende       
Subtour_10      |1.00            |1.00            |0.00            |Bindende       
Subtour_11      |2.00            |2.00            |0.00            |Bindende       
Subtour_12      |2.00            |2.00            |0.00            |Bindende       
Subtour_13      |1.00            |2.00            |1.00            |Ikke-bindende  
Subtour_14      |1.00            |2.00            |1.00            |Ikke-bindende  
Subtour_15      |1.00            |2.00            |1.00            |Ikke-bindende  
Subtour_16      |2.00            |2.00            |0.00            |Bindende       
Subtour_17      |1.00            |2.00            |1.00            |Ikke-bindende  
Subtour_18      |2.00            |2.00            |0.00            |Bindende       
Subtour_19      |1.00            |2.00            |1.00            |Ikke-bindende  
Subtour_20      |2.00            |2.00            |0.00            |Bindende       
Subtour_21      |3.00            |3.00            |0.00            |Bindende       
Subtour_22      |3.00            |3.00            |0.00            |Bindende       
Subtour_23      |3.00            |3.00            |0.00            |Bindende       
Subtour_24      |3.00            |3.00            |0.00            |Bindende       
Subtour_25      |3.00            |3.00            |0.00            |Bindende       



====================================================================================================
TSP MATRIX
====================================================================================================
        |ca      |wh      |ta      |kr      |cr      |Sum     
--------------------------------------------------------------
ca      |    0.00|    0.00|   -0.00|    1.00|    0.00|    1.00
wh      |    1.00|    0.00|    0.00|    0.00|   -0.00|    1.00
ta      |    0.00|    1.00|    0.00|   -0.00|    0.00|    1.00
kr      |    0.00|   -0.00|    0.00|    0.00|    1.00|    1.00
cr      |    0.00|    0.00|    1.00|    0.00|    0.00|    1.00
--------------------------------------------------------------
Sum     |    1.00|    1.00|    1.00|    1.00|    1.00|    5.00
====================================================================================================


====================================================================================================
TSP TOUR
====================================================================================================

Tour sekvens:
ca → kr → cr → ta → wh → ca

Total omkostning: 48.00
====================================================================================================

